instances/shortest_path/discrete/shortest_path_2_17.kp
68557
67

[0.04373468627162597 7.761933838657263]

[67 40]
